language ESSENCE' 1.0
letting AssignmentMatrix be [[0, 1, 0, 1, 1, 1, 1, 0, 1, 0, 0, 1, 1, 0, 0, 1, 1, 1, 0, 1, 0, 0, 0, 0, 0], 
[0, 1, 0, 0, 0, 1, 1, 1, 0, 1, 1, 0, 0, 1, 0, 0, 0, 0, 1, 0, 1, 0, 1, 0, 1], 
[0, 0, 0, 0, 0, 0, 0, 0, 0, 0, 0, 0, 0, 0, 0, 0, 0, 0, 0, 0, 0, 0, 0, 0, 0], 
[1, 0, 1, 0, 0, 0, 0, 0, 0, 0, 0, 0, 0, 0, 1, 0, 0, 0, 0, 0, 0, 1, 0, 0, 0], 
[0, 0, 0, 0, 0, 0, 0, 0, 0, 0, 0, 0, 0, 0, 0, 0, 1, 0, 0, 0, 0, 0, 0, 1, 0]]
letting CPU be [4, 4, 4, 2, 2, 4, 4, 2, 2, 2, 2, 2, 2, 2, 4, 2, 8, 2, 2, 2, 2, 4, 2, 4, 2]
letting Memory be [7500, 15000, 7500, 3750, 3750, 15000, 15000, 3750, 3750, 3750, 3750, 3750, 3750, 3750, 7500, 3750, 15000, 3750, 3750, 3750, 3750, 7500, 3750, 7500, 3750]
letting Price be [210, 350, 210, 116, 116, 350, 350, 116, 116, 116, 116, 116, 116, 116, 210, 116, 420, 116, 116, 116, 116, 210, 116, 210, 116]
letting Storage be [2000, 4000, 2000, 2000, 2000, 4000, 4000, 2000, 2000, 2000, 2000, 2000, 2000, 2000, 2000, 2000, 2000, 2000, 2000, 2000, 2000, 2000, 2000, 2000, 2000]
letting VMType be [341, 316, 341, 433, 433, 316, 316, 433, 433, 433, 433, 433, 433, 433, 341, 433, 278, 433, 433, 433, 433, 341, 433, 341, 433]
